c 
c G(k,n,p) graph
c graph gen seed     : 755
c number of vertices : 25
c max number of edges: 500
c number of classes  : 2
c edge density       : 0.400000
c edge probability   : 0.800000
c data structure     : sparse
c
c           Graph Stats
c number of vertices  : 25
c nonisolated vertices: 25
c number of edges     : 127
c edge density        : 0.423333
c max degree          : 14
c avg degree          : 10.16
c min degree          : 6
p col 25 127
e 1 25
e 1 21
e 1 16
e 1 14
e 1 10
e 1 9
e 1 5
e 1 4
e 2 25
e 2 24
e 2 22
e 2 21
e 2 19
e 2 10
e 2 9
e 2 5
e 2 4
e 3 25
e 3 22
e 3 21
e 3 19
e 3 16
e 3 14
e 3 10
e 3 9
e 3 5
e 4 18
e 4 17
e 4 15
e 4 13
e 4 12
e 4 11
e 4 8
e 4 7
e 4 6
e 5 23
e 5 20
e 5 18
e 5 17
e 5 15
e 5 13
e 5 12
e 5 11
e 5 8
e 5 7
e 5 6
e 6 25
e 6 22
e 6 21
e 6 19
e 6 16
e 6 14
e 6 10
e 6 9
e 7 25
e 7 24
e 7 22
e 7 21
e 7 19
e 7 14
e 7 10
e 7 9
e 8 25
e 8 24
e 8 22
e 8 19
e 8 16
e 8 14
e 8 10
e 8 9
e 9 23
e 9 20
e 9 17
e 9 12
e 10 20
e 10 18
e 10 17
e 10 15
e 10 12
e 10 11
e 11 25
e 11 22
e 11 21
e 11 19
e 11 16
e 12 25
e 12 24
e 12 22
e 12 21
e 12 19
e 12 16
e 12 14
e 13 25
e 13 24
e 13 22
e 13 21
e 13 19
e 13 16
e 13 14
e 14 20
e 14 18
e 14 17
e 15 25
e 15 22
e 15 16
e 16 23
e 16 20
e 16 18
e 16 17
e 17 25
e 17 24
e 17 22
e 18 25
e 18 24
e 18 22
e 18 21
e 18 19
e 19 23
e 19 20
e 20 25
e 20 24
e 20 22
e 20 21
e 21 23
e 22 23
e 23 25
e 23 24
